p cnf 65 119
1 0
-3 1 0
-3 2 0
3 -1 -2 0
-4 -2 0
-4 -3 0
4 2 3 0
-5 -3 0
-5 -4 0
5 3 4 0
-6 1 0
-6 -4 0
6 -1 4 0
-7 5 0
-7 -6 0
7 -5 6 0
-8 4 0
-8 -5 0
8 -4 5 0
-9 -7 0
-9 -8 0
9 7 8 0
10 -1 -9 0
-11 1 0
-11 6 0
11 -1 -6 0
12 9 -11 0
13 -1 -5 0
-14 -12 0
-14 -13 0
-15 -10 0
-15 14 0
16 6 15 0
-17 5 0
-17 -11 0
17 -5 11 0
-18 5 0
-18 -11 0
18 -5 11 0
-19 -17 0
-19 -18 0
19 17 18 0
20 6 19 0
-21 -4 0
-21 6 0
21 4 -6 0
-22 1 0
-22 -6 0
22 -1 6 0
-23 6 0
-23 11 0
23 -6 -11 0
-24 -4 0
-24 -19 0
24 4 19 0
-25 -23 0
-25 -24 0
25 23 24 0
-26 -22 0
-26 25 0
26 22 -25 0
-27 -21 0
-27 26 0
27 21 -26 0
28 -6 27 0
29 5 11 0
30 -3 -6 0
31 -1 -11 0
32 -4 -5 0
-33 -31 0
-33 -32 0
-34 -30 0
-34 33 0
-35 -29 0
-35 34 0
36 27 35 0
37 -11 35 0
38 -9 27 0
39 -1 11 0
40 -6 19 0
41 -6 -19 0
42 11 -27 0
-43 -41 0
-43 -42 0
-44 -40 0
-44 43 0
-45 -39 0
-45 44 0
-46 -38 0
-46 45 0
-47 -37 0
-47 46 0
48 -2 47 0
49 -4 -48 0
50 5 47 0
51 4 -50 0
52 -11 15 0
53 9 -52 0
54 2 -4 0
55 -19 -54 0
56 9 27 0
57 -11 -56 0
-58 -55 0
-58 -57 0
-59 -53 0
-59 58 0
-60 -51 0
-60 59 0
-61 -49 0
-61 60 0
-62 -36 0
-62 61 0
-63 -28 0
-63 62 0
-64 -20 0
-64 63 0
-65 -16 0
-65 64 0
65 0
